experiment/data/lkh-res/Vrp-Set-X-n176/Vrp-Set-X-n176-lkh/0.lkh1.vrp
NAME : 0
COMMENT : CVRP Instance
TYPE : CVRP
DIMENSION : 176
EDGE_WEIGHT_TYPE : EUC_2D
CAPACITY : 142
NODE_COORD_SECTION
1	0	0
2	62800	10300
3	29100	57300
4	12900	44700
5	97300	64300
6	83000	86800
7	39800	56300
8	73100	42300
9	20100	99500
10	16700	17400
11	1300	60500
12	44600	26200
13	22900	77400
14	74000	23100
15	2100	54600
16	22400	61500
17	60500	83700
18	47300	75900
19	75800	88000
20	9300	90000
21	58000	93500
22	62200	49400
23	51300	23600
24	65900	79700
25	60600	20400
26	26700	68800
27	2800	88800
28	60600	75400
29	84100	67600
30	82300	61100
31	100	24700
32	19500	48600
33	64400	77100
34	52400	4500
35	58100	36600
36	76900	47100
37	7800	80000
38	94000	79000
39	86700	44100
40	24300	45300
41	41000	46400
42	46500	16100
43	41700	30400
44	61600	94400
45	60900	35600
46	82200	48900
47	73800	93200
48	46200	71800
49	84700	45900
50	56300	61900
51	79200	94000
52	43400	31800
53	100000	64700
54	56600	41300
55	49200	8300
56	76400	55000
57	14500	18200
58	54000	24900
59	20800	76000
60	75900	98800
61	6600	22100
62	52000	52100
63	26000	50800
64	30700	46800
65	74700	30800
66	37000	13600
67	42100	50500
68	37300	59700
69	87600	88100
70	28100	1800
71	41900	6900
72	50200	24200
73	34300	76400
74	27500	61000
75	43400	16100
76	31400	4000
77	74400	67500
78	69800	36400
79	60000	88100
80	900	89300
81	87500	72400
82	72800	25300
83	50200	96900
84	86700	46400
85	23700	90700
86	86800	26300
87	68000	30600
88	74000	68800
89	53400	61500
90	45000	89800
91	12600	41500
92	56500	26000
93	17200	12600
94	13700	67400
95	78900	95800
96	85300	14700
97	76200	11100
98	41600	62600
99	6300	23700
100	19400	7500
101	61600	13300
102	10400	80400
103	30400	69900
104	75800	4000
105	24900	14100
106	84800	77000
107	31600	42600
108	79100	80300
109	88400	98000
110	61800	10700
111	85800	64400
112	11600	38800
113	93900	88000
114	21700	91200
115	13800	21700
116	63900	58800
117	54200	96500
118	77500	29400
119	32500	15400
120	83900	45900
121	2100	75100
122	24800	88300
123	3400	10100
124	27400	82400
125	40800	64100
126	92300	32000
127	83800	84600
128	8300	77200
129	93800	43200
130	91300	76600
131	75800	81600
132	48100	15600
133	54800	80900
134	66000	39300
135	77300	57900
136	26100	9700
137	38000	84900
138	43300	89300
139	31200	34700
140	29500	48000
141	27700	51900
142	83300	97000
143	76000	47000
144	3300	45500
145	28900	17600
146	28300	84500
147	95300	93700
148	200	93900
149	16400	7100
150	53900	75600
151	67900	88000
152	30900	11300
153	85700	84200
154	18400	45500
155	18100	7000
156	13600	92800
157	2300	1700
158	12700	71000
159	65700	42200
160	24800	59300
161	52500	51900
162	10900	80500
163	75400	48700
164	48400	9000
165	92300	15700
166	19500	3800
167	7400	96100
168	26100	66300
169	98400	13500
170	28100	22700
171	67300	17600
172	7800	32200
173	17700	54300
174	59000	19900
175	55900	60900
176	900	34300
DEMAND_SECTION
1	0
2	94
3	65
4	69
5	89
6	74
7	95
8	87
9	96
10	56
11	94
12	79
13	91
14	75
15	54
16	97
17	93
18	81
19	100
20	75
21	56
22	71
23	100
24	54
25	100
26	62
27	51
28	58
29	79
30	65
31	52
32	65
33	65
34	59
35	77
36	89
37	66
38	71
39	10
40	10
41	1
42	9
43	4
44	9
45	8
46	4
47	8
48	7
49	9
50	10
51	6
52	2
53	6
54	9
55	5
56	3
57	4
58	5
59	6
60	6
61	6
62	1
63	8
64	9
65	6
66	5
67	8
68	5
69	9
70	2
71	3
72	9
73	9
74	4
75	2
76	2
77	10
78	9
79	9
80	8
81	8
82	9
83	9
84	6
85	6
86	8
87	9
88	7
89	10
90	10
91	1
92	7
93	4
94	1
95	6
96	5
97	5
98	8
99	4
100	6
101	7
102	10
103	10
104	6
105	6
106	8
107	7
108	8
109	8
110	2
111	8
112	7
113	9
114	6
115	10
116	2
117	4
118	3
119	2
120	5
121	1
122	1
123	7
124	6
125	4
126	5
127	9
128	4
129	2
130	6
131	4
132	4
133	9
134	1
135	3
136	4
137	4
138	4
139	9
140	9
141	3
142	6
143	6
144	4
145	4
146	3
147	3
148	1
149	3
150	8
151	9
152	2
153	9
154	1
155	9
156	7
157	8
158	7
159	7
160	8
161	9
162	10
163	3
164	2
165	9
166	8
167	6
168	7
169	7
170	5
171	3
172	9
173	9
174	4
175	7
176	4
DEPOT_SECTION
1
-1
EOF
