experiment/data/lkh-res/Vrp-Set-X-n176/Vrp-Set-X-n176-lkh/0.lkh1.tour
NAME : 0.4810164.tour
COMMENT : Length = 4810164
COMMENT : Found by LKH-3 [Keld Helsgaun] Tue Apr  9 03:42:12 2024
TYPE : TOUR
DIMENSION : 201
TOUR_SECTION
1
121
27
80
148
167
20
179
24
106
29
195
154
32
4
112
200
137
138
90
83
117
44
79
17
197
59
13
73
103
125
98
68
140
194
171
14
82
65
118
86
126
169
165
96
97
104
189
70
34
35
93
182
22
135
30
56
192
76
71
55
110
2
101
164
166
180
100
136
152
66
75
42
174
25
132
198
43
52
54
159
8
78
87
92
58
149
177
39
84
49
120
46
36
143
163
134
45
186
31
18
48
181
12
170
10
184
57
107
64
7
62
161
67
139
183
61
91
124
146
122
85
114
9
156
162
185
173
16
160
63
40
115
188
141
3
74
26
168
191
94
158
102
37
128
15
201
157
105
145
72
23
155
178
6
142
60
21
187
116
108
127
153
69
109
147
113
38
130
81
190
150
28
33
89
41
199
131
19
51
95
47
151
133
193
175
50
88
77
111
5
53
129
119
196
176
11
144
172
99
123
-1
EOF
